1000
1000
700
700
700
700
699
699
698
698
697
696
696
695
695
695
694
694
693
693
692
692
692
691
690
689
689
688
684
684
682
682
680
680
678
678
678
677
677
677
676
676
674
674
674
674
672
671
671
671
667
667
666
666
665
663
663
663
662
662
661
661
660
658
658
658
657
657
657
654
654
653
653
652
651
650
649
649
648
648
647
647
647
647
646
646
646
643
643
643
641
641
641
640
640
639
639
638
638
638
638
638
636
635
634
633
633
630
630
629
628
628
627
627
627
625
624
624
623
623
623
621
620
619
619
619
618
617
617
616
616
616
615
615
614
614
614
613
613
613
611
611
610
609
609
609
609
608
608
607
607
607
606
606
606
604
603
602
601
601
601
600
599
599
599
598
598
598
597
597
596
596
595
594
594
594
594
594
593
591
590
590
590
589
588
587
587
586
585
584
584
583
583
581
580
580
580
579
579
579
579
578
577
575
575
575
573
573
573
572
572
571
571
571
570
570
570
569
569
565
565
565
565
564
564
563
563
563
562
561
561
560
560
560
558
558
557
557
556
556
554
553
553
552
552
552
552
551
551
551
550
550
549
549
549
548
547
547
545
545
545
544
544
544
543
542
542
541
541
541
541
540
539
539
539
539
538
538
537
537
537
536
535
535
534
534
533
533
532
531
531
531
530
530
530
529
528
527
527
526
525
523
523
522
522
520
519
517
516
516
514
513
513
513
512
512
511
511
511
510
510
509
508
508
507
507
506
506
505
505
504
504
504
503
503
503
503
502
502
501
501
500
500
500
500
499
499
498
498
496
495
493
492
491
489
488
487
487
486
485
484
483
482
482
482
480
479
478
478
477
476
475
475
473
472
472
472
472
471
471
470
469
468
468
468
467
467
467
467
467
467
466
465
465
465
464
464
464
462
462
462
461
460
459
458
458
457
456
456
455
454
454
453
453
452
452
452
452
450
450
450
449
448
448
448
447
447
447
447
446
446
445
445
445
444
443
443
443
443
442
442
439
438
435
435
435
434
434
431
431
430
430
429
429
429
428
427
426
424
423
421
420
420
419
418
418
418
417
415
414
414
414
414
413
412
411
408
408
407
406
406
405
405
404
404
404
403
403
403
402
401
400
400
399
399
398
398
397
397
397
396
395
393
393
393
391
391
390
390
390
390
389
389
389
388
388
387
386
386
386
385
384
384
384
383
382
382
381
381
381
380
380
380
379
378
377
377
376
374
374
374
374
372
372
371
370
370
369
369
368
367
365
365
364
364
363
363
362
362
362
362
361
361
361
361
360
359
359
357
355
355
354
352
351
351
351
350
349
348
348
348
347
345
345
345
344
344
343
343
342
341
339
339
338
338
337
336
336
335
335
334
333
333
333
329
328
328
328
325
325
325
325
325
324
324
324
323
323
323
322
322
322
322
321
321
320
319
319
319
319
318
318
316
315
315
314
314
314
314
313
312
311
311
310
310
309
308
308
307
307
307
307
306
306
306
305
305
304
304
304
304
303
302
302
301
301
301
300
299
299
299
298
298
297
297
296
296
294
294
293
293
293
292
290
289
289
288
288
288
288
288
288
287
286
285
282
281
280
280
279
279
279
279
277
277
277
277
277
275
274
273
273
272
272
270
269
269
268
267
266
266
265
265
265
265
264
264
263
263
263
263
262
262
262
262
262
262
261
261
261
261
260
259
258
258
258
257
257
257
256
255
254
254
253
253
251
251
248
248
247
246
246
245
244
244
243
242
241
238
237
237
236
236
236
235
234
234
234
232
231
231
231
231
230
230
230
230
230
230
228
228
227
227
227
227
227
227
225
222
222
221
221
221
220
218
217
215
215
215
214
214
213
213
212
211
211
211
211
211
210
210
210
210
209
208
207
207
206
204
202
202
202
200
200
200
199
199
199
199
197
196
195
193
193
193
191
190
190
189
189
188
188
188
188
187
186
185
184
184
184
184
183
183
183
183
181
180
180
179
178
178
178
177
177
177
176
175
175
175
175
174
172
172
171
171
170
170
169
169
169
169
169
168
167
166
166
166
165
164
163
163
162
162
161
160
160
159
159
158
158
157
157
155
155
155
155
154
152
152
151
151
150
149
148
148
145
145
145
145
145
145
144
143
142
142
142
142
142
141
140
139
139
138
137
137
136
136
136
135
135
135
133
133
133
132
130
129
129
129
129
128
127
124
123
122
122
121
121
120
120
119
118
118
117
117
117
117
115
115
114
113
113
113
113
112
110
110
109
109
108
107
106
106
106
105
105
103
103
103
102
101
101
